100 1306137051
48 50 85 33 27 45 26 82 70 81 65 37 66 59 24 40 56 25 39 55 67 75 64 86 93 53 77 89 21 68 80 41 6 5 8 78 96 4 98 63 84 69 12 79 44 28 43 7 13 16 61 49 29 17 38 99 42 18 35 62 15 88 92 74 10 30 58 94 100 83 11 22 9 3 97 60 87 71 54 36 2 23 57 47 73 34 91 1 20 90 72 52 95 19 32 14 76 51 46 31 
